[ma. 03. april 18:07:39 +0200 2023]  ./input/alternate_g_np/50-5-2.gcc
Set parameter Username
Academic license - for non-commercial use only - expires 2024-03-28
Set parameter TimeLimit to value 1800
Set parameter PreCrush to value 1
Set parameter LazyConstraints to value 1
Gurobi Optimizer version 10.0.1 build v10.0.1rc0 (linux64)

CPU model: AMD Ryzen 9 5950X 16-Core Processor, instruction set [SSE2|AVX|AVX2]
Thread count: 16 physical cores, 32 logical processors, using up to 32 threads

Optimize a model with 56 rows, 350 columns and 950 nonzeros
Model fingerprint: 0xb2b0b837
Variable types: 0 continuous, 350 integer (350 binary)
Coefficient statistics:
  Matrix range     [1e+00, 1e+00]
  Objective range  [4e+00, 1e+02]
  Bounds range     [1e+00, 1e+00]
  RHS range        [1e+00, 1e+00]
Presolve time: 0.00s
Presolved: 56 rows, 350 columns, 950 nonzeros
Variable types: 0 continuous, 350 integer (350 binary)

Root relaxation: objective 2.856000e+03, 6 iterations, 0.00 seconds (0.00 work units)

    Nodes    |    Current Node    |     Objective Bounds      |     Work
 Expl Unexpl |  Obj  Depth IntInf | Incumbent    BestBd   Gap | It/Node Time

     0     0 2856.00000    0    8          - 2856.00000      -     -    0s
     0     0 2856.00000    0    9          - 2856.00000      -     -    0s
     0     0 2856.00000    0    -          - 2856.00000      -     -    0s
     0     0 2856.00000    0    6          - 2856.00000      -     -    0s
     0     0 2856.00000    0    -          - 2856.00000      -     -    0s
     0     0 2856.00000    0    -          - 2856.00000      -     -    0s
     0     0 2856.00000    0   17          - 2856.00000      -     -    0s
     0     2 2856.00000    0    6          - 2856.00000      -     -    0s
*12173  5404              32    2808.0000000 2856.00000  1.71%  23.0    2s
*12301  5124              23    2829.0000000 2856.00000  0.95%  23.0    2s
*14233  5189              23    2831.0000000 2856.00000  0.88%  23.8    3s
*14314  3144              28    2852.0000000 2856.00000  0.14%  24.1    3s
H15024  1862                    2856.0000000 2856.00000  0.00%  25.5    3s

Cutting planes:
  User: 138
  Gomory: 3
  Lazy constraints: 1106

Explored 15541 nodes (419745 simplex iterations) in 3.71 seconds (1.39 work units)
Thread count was 32 (of 32 available processors)

Solution count 5: 2856 2852 2831 ... 2808

Optimal solution found (tolerance 1.00e-04)
Best objective 2.856000000000e+03, best bound 2.856000000000e+03, gap 0.0000%

User-callback calls 31761, time in user-callback 1.30 sec
Minimal separator inequalities added: 99267
Indegree inequalities added: 0
Passed solution check
[ma. 03. april 18:07:43 +0200 2023]  done

